
  22   10
  10   10   10   10   10   10   10   10   10   10

   0   0   0   0   0   0   0   0   0   0   0   2 2 4 
   8  10  10  10  10  10  10  10  10  10  10   2 6 3 
   1  10  10  10  10  10  10  10  10  10  10   2 8 5 
   9  10  10  10  10  10  10  10  10  10  10   2 8 5 
   7  10  10  10  10  10  10  10  10  10  10   3 18 10 7 
   5  10  10  10  10  10  10  10  10  10  10   3 18 10 7 
   6  10  10  10  10  10  10  10  10  10  10   2 16 9 
   1  10  10  10  10  10  10  10  10  10  10   2 12 11 
  10  10  10  10  10  10  10  10  10  10  10   5 20 19 17 13 12 
   4  10  10  10  10  10  10  10  10  10  10   5 21 17 15 14 12 
   2  10  10  10  10  10  10  10  10  10  10   5 18 16 15 14 13 
   5  10  10  10  10  10  10  10  10  10  10   1 22
   3  10  10  10  10  10  10  10  10  10  10   1 22
  10  10  10  10  10  10  10  10  10  10  10   1 22
   8  10  10  10  10  10  10  10  10  10  10   1 22
   2  10  10  10  10  10  10  10  10  10  10   1 22
   8  10  10  10  10  10  10  10  10  10  10   1 22
  10  10  10  10  10  10  10  10  10  10  10   1 22
   9  10  10  10  10  10  10  10  10  10  10   1 22
   6  10  10  10  10  10  10  10  10  10  10   1 22
   1  10  10  10  10  10  10  10  10  10  10   1 22
   0   0   0   0   0   0   0   0   0   0   0   0 
